2
150 2
59
20 1 3
25 1 2
26 1 2
28 1 1
29 1 1
31 1 2
32 1 2
33 1 2
34 1 3
35 1 1
36 1 3
37 1 1
38 1 2
39 1 1
41 1 1
42 1 1
43 1 1
44 1 1
45 1 2
46 1 1
47 1 1
48 1 1
49 1 1
51 1 1
55 1 1
56 1 1
57 1 1
58 1 1
60 1 1
61 1 2
62 1 5
63 1 1
64 1 2
65 1 1
68 1 1
69 1 1
73 1 1
74 1 1
75 1 1
77 1 3
78 1 2
79 1 3
80 1 2
81 1 1
82 1 4
83 1 3
84 1 1
87 1 1
89 1 1
90 1 2
91 1 2
92 1 1
94 1 1
95 1 3
96 1 2
97 1 3
98 1 1
99 1 4
100 1 2
